objective value:                                   -3
t_n_2                                               1 	(obj:-1)
t_n_955                                             1 	(obj:-1)
t_n_1434                                            1 	(obj:-1)
